NAME: ACTUAL_TOURS/amz2310
TYPE: TOUR
COMMENT: RouteID_f4a21ec4-90c7-4a84-80c0-f95f3be7d453
DIMENSION: 179
TOUR_SECTION
146
144
82
11
86
66
115
162
137
129
26
145
74
155
172
45
98
149
156
19
97
5
68
174
79
87
140
47
85
105
9
7
178
20
101
113
89
164
168
43
12
14
41
22
107
72
84
117
154
34
1
121
91
147
13
142
33
29
143
169
100
81
88
126
36
132
106
70
16
130
38
151
50
179
57
77
59
102
78
53
37
175
131
139
67
44
165
92
114
24
80
35
60
166
25
30
48
58
28
150
49
123
71
118
176
167
116
111
90
135
95
6
64
177
75
69
76
54
171
163
173
110
10
73
133
65
120
96
141
2
153
40
63
51
94
127
61
21
134
42
138
125
109
31
62
128
157
160
112
3
32
18
158
8
122
52
159
27
15
4
46
136
103
23
148
119
83
56
124
108
17
170
152
104
39
161
93
55
99
-1
EOF
